43 





































































































33 73 66 40 69 61 
31 1 21 56 15 54 
18 62 71 9 39 8 
4 22 67 48 26 11 0 
60 59 52 29 50 70 
19 53 63 47 12 23 14 
2 10 16 72 41 27 
68 51 65 24 64 20 
42 49 17 3 28 25 35 
37 30 76 13 44 75 
58 32 7 57 34 6 
45 
38 74 36 55 5 46 
